
#######################################################################
#
#                 Cambridge Crystallographic Data Centre
#                                CCDC 
#
#######################################################################
#
# If this CIF has been generated from an entry in the Cambridge 
# Structural Database, then it will include bibliographic, chemical, 
# crystal, experimental, refinement or atomic coordinate data resulting 
# from the CCDC's data processing and validation procedures.
#
#######################################################################

data_ABEFUL
_audit_creation_date             2016-11-23
_database_code_depnum_ccdc_archive 'CCDC 993277'
_database_code_CSD               ABEFUL
_chemical_formula_moiety         
'(C44 H26 N4 O12 S4 Tb1 1-)n,n(H3 O1 1+),2n(H2 O1)'
_chemical_name_systematic        
'catena-(oxonium (5,10,15,20-tetrakis(4-sulfonatophenyl)porphyin)-terbium dihydrate)'
_journal_coden_Cambridge         908
_journal_volume                  12
_journal_year                    2015
_journal_page_first              937
_journal_name_full               J.Iran.Chem.Soc.
_journal_paper_doi               10.1007/s13738-014-0556-x
loop_
_publ_author_name
'Wen-Tong Chen'
'Rong-Hua Hu'
'Ya-Ping Xu'
'Qiu-Yan Luo'
'Yan-Kang Dai'
'Shan-Lin Huang'
'Pei-Yu Guo'
_chemical_absolute_configuration unk
_diffrn_ambient_temperature      123
_exptl_crystal_density_diffrn    1.632
#These two values have been output from a single CSD field.
_refine_ls_R_factor_gt           0.0566
_refine_ls_wR_factor_gt          0.0566
_diffrn_radiation_probe          x-ray
_symmetry_cell_setting           tetragonal
_symmetry_space_group_name_H-M   'P 4/m c c'
_symmetry_Int_Tables_number      124
_space_group_name_Hall           '-P 4 2c'
loop_
_symmetry_equiv_pos_site_id
_symmetry_equiv_pos_as_xyz
1 x,y,z
2 -x,-y,z
3 -y,x,z
4 y,-x,z
5 -x,y,1/2-z
6 x,-y,1/2-z
7 y,x,1/2-z
8 -y,-x,1/2-z
9 -x,-y,-z
10 x,y,-z
11 y,-x,-z
12 -y,x,-z
13 x,-y,1/2+z
14 -x,y,1/2+z
15 -y,-x,1/2+z
16 y,x,1/2+z
_cell_length_a                   15.3873(6)
_cell_length_b                   15.3873(6)
_cell_length_c                   9.8379(8)
_cell_angle_alpha                90
_cell_angle_beta                 90
_cell_angle_gamma                90
_cell_volume                     2329.31
_exptl_crystal_colour            purple
_exptl_crystal_description       block
_cell_formula_units_Z            2
loop_
_atom_site_label
_atom_site_type_symbol
_atom_site_fract_x
_atom_site_fract_y
_atom_site_fract_z
Tb1 Tb 0.5000 0.5000 0.2500
S1 S 0.52674(6) 0.32096(6) 0.0000
N1 N 0.0299(2) 0.1297(2) 0.0000
C1 C 0.4250(2) 0.2685(2) 0.0000
C2 C 0.38697(19) 0.24501(17) 0.1222(3)
H1 H 0.4116 0.2627 0.2040
C3 C 0.31227(19) 0.19518(18) 0.1219(3)
H2 H 0.2876 0.1782 0.2040
C4 C 0.2735(2) 0.1700(2) 0.0000
C5 C 0.1915(2) 0.1179(2) 0.0000
C6 C 0.1127(3) 0.1644(2) 0.0000
C7 C 0.1058(2) 0.2580(2) 0.0000
H3 H 0.1516 0.2974 0.0000
C8 C 0.0207(3) 0.2774(3) 0.0000
H4 H -0.0028 0.3331 0.0000
C9 C -0.0280(3) 0.1981(3) 0.0000
O1 O 0.53184(13) 0.37360(14) 0.1223(3)
O2 O 0.58954(17) 0.25267(17) 0.0000
S1B S -0.32096(6) 0.52674(6) 0.0000
N1B N -0.1297(2) 0.0299(2) 0.0000
C1B C -0.2685(2) 0.4250(2) 0.0000
C2B C -0.24501(17) 0.38697(19) 0.1222(3)
H1B H -0.2627 0.4116 0.2040
C3B C -0.19518(18) 0.31227(19) 0.1219(3)
H2B H -0.1782 0.2876 0.2040
C4B C -0.1700(2) 0.2735(2) 0.0000
C5B C -0.1179(2) 0.1915(2) 0.0000
C6B C -0.1644(2) 0.1127(3) 0.0000
C7B C -0.2580(2) 0.1058(2) 0.0000
H3B H -0.2974 0.1516 0.0000
C8B C -0.2774(3) 0.0207(3) 0.0000
H4B H -0.3331 -0.0028 0.0000
C9B C -0.1981(3) -0.0280(3) 0.0000
O1B O -0.37360(14) 0.53184(13) 0.1223(3)
O2B O -0.25267(17) 0.58954(17) 0.0000
S1C S 0.32096(6) -0.52674(6) 0.0000
N1C N 0.1297(2) -0.0299(2) 0.0000
C1C C 0.2685(2) -0.4250(2) 0.0000
C2C C 0.24501(17) -0.38697(19) 0.1222(3)
H1C H 0.2627 -0.4116 0.2040
C3C C 0.19518(18) -0.31227(19) 0.1219(3)
H2C H 0.1782 -0.2876 0.2040
C4C C 0.1700(2) -0.2735(2) 0.0000
C5C C 0.1179(2) -0.1915(2) 0.0000
C6C C 0.1644(2) -0.1127(3) 0.0000
C7C C 0.2580(2) -0.1058(2) 0.0000
H3C H 0.2974 -0.1516 0.0000
C8C C 0.2774(3) -0.0207(3) 0.0000
H4C H 0.3331 0.0028 0.0000
C9C C 0.1981(3) 0.0280(3) 0.0000
O1C O 0.37360(14) -0.53184(13) 0.1223(3)
O2C O 0.25267(17) -0.58954(17) 0.0000
C2I C 0.38697(19) 0.24501(17) -0.1222(3)
H1I H 0.4116 0.2627 -0.2040
C3I C 0.31227(19) 0.19518(18) -0.1219(3)
H2I H 0.2876 0.1782 -0.2040
O1I O 0.53184(13) 0.37360(14) -0.1223(3)
C2J C 0.24501(17) -0.38697(19) -0.1222(3)
H1J H 0.2627 -0.4116 -0.2040
C3J C 0.19518(18) -0.31227(19) -0.1219(3)
H2J H 0.1782 -0.2876 -0.2040
O1J O 0.37360(14) -0.53184(13) -0.1223(3)
C2K C -0.24501(17) 0.38697(19) -0.1222(3)
H1K H -0.2627 0.4116 -0.2040
C3K C -0.19518(18) 0.31227(19) -0.1219(3)
H2K H -0.1782 0.2876 -0.2040
O1K O -0.37360(14) 0.53184(13) -0.1223(3)
S1A S -0.52674(6) -0.32096(6) 0.0000
N1A N -0.0299(2) -0.1297(2) 0.0000
C1A C -0.4250(2) -0.2685(2) 0.0000
C2A C -0.38697(19) -0.24501(17) 0.1222(3)
H1A H -0.4116 -0.2627 0.2040
C3A C -0.31227(19) -0.19518(18) 0.1219(3)
H2A H -0.2876 -0.1782 0.2040
C4A C -0.2735(2) -0.1700(2) 0.0000
C5A C -0.1915(2) -0.1179(2) 0.0000
C6A C -0.1127(3) -0.1644(2) 0.0000
C7A C -0.1058(2) -0.2580(2) 0.0000
H3A H -0.1516 -0.2974 0.0000
C8A C -0.0207(3) -0.2774(3) 0.0000
H4A H 0.0028 -0.3331 0.0000
C9A C 0.0280(3) -0.1981(3) 0.0000
O1A O -0.53184(13) -0.37360(14) 0.1223(3)
O2A O -0.58954(17) -0.25267(17) 0.0000
C2H C -0.38697(19) -0.24501(17) -0.1222(3)
H1H H -0.4116 -0.2627 -0.2040
C3H C -0.31227(19) -0.19518(18) -0.1219(3)
H2H H -0.2876 -0.1782 -0.2040
O1H O -0.53184(13) -0.37360(14) -0.1223(3)
Tb1_2 Tb -0.5000 -0.5000 0.2500
Tb1_3 Tb -0.5000 0.5000 0.2500
Tb1_4 Tb 0.5000 -0.5000 0.2500
Tb1H Tb -0.5000 -0.5000 -0.2500
Tb1H_2 Tb -0.5000 0.5000 -0.2500
Tb1H_3 Tb 0.5000 -0.5000 -0.2500
Tb1H_4 Tb 0.5000 0.5000 -0.2500
O1A_2 O 0.46816(13) 0.62640(14) 0.1223(3)
O1B_2 O 0.62640(14) 0.53184(13) 0.1223(3)
O1C_2 O 0.37360(14) 0.46816(13) 0.1223(3)
O1D O 0.46816(13) 0.37360(14) 0.3777(3)
O1E O 0.53184(13) 0.62640(14) 0.3777(3)
O1F O 0.37360(14) 0.53184(13) 0.3777(3)
O1G O 0.62640(14) 0.46816(13) 0.3777(3)
O3 O 0.0000 0.0000 0.2500
O4 O 0.0000 0.0000 0.0775(10)
loop_
_geom_bond_atom_site_label_1
_geom_bond_atom_site_label_2
_geom_bond_site_symmetry_1
_geom_bond_site_symmetry_2
Tb1 O1 1_555 1_555
S1 C1 1_555 1_555
N1 C6 1_555 1_555
C1 C2 1_555 1_555
C2 H1 1_555 1_555
C3 C2 1_555 1_555
H2 C3 1_555 1_555
C4 C3 1_555 1_555
C5 C4 1_555 1_555
C6 C5 1_555 1_555
C7 C6 1_555 1_555
H3 C7 1_555 1_555
C8 C7 1_555 1_555
H4 C8 1_555 1_555
C9 N1 1_555 1_555
O1 S1 1_555 1_555
O2 S1 1_555 1_555
S1B C1B 1_555 1_555
N1B C6B 1_555 1_555
C1B C2B 1_555 1_555
C2B H1B 1_555 1_555
C3B C2B 1_555 1_555
H2B C3B 1_555 1_555
C4B C3B 1_555 1_555
C5B C9 1_555 1_555
C6B C5B 1_555 1_555
C7B C6B 1_555 1_555
H3B C7B 1_555 1_555
C8B C7B 1_555 1_555
H4B C8B 1_555 1_555
C9B N1B 1_555 1_555
O1B S1B 1_555 1_555
O2B S1B 1_555 1_555
S1C C1C 1_555 1_555
N1C C6C 1_555 1_555
C1C C2C 1_555 1_555
C2C H1C 1_555 1_555
C3C C2C 1_555 1_555
H2C C3C 1_555 1_555
C4C C3C 1_555 1_555
C5C C4C 1_555 1_555
C6C C5C 1_555 1_555
C7C C6C 1_555 1_555
H3C C7C 1_555 1_555
C8C C7C 1_555 1_555
H4C C8C 1_555 1_555
C9C C5 1_555 1_555
O1C S1C 1_555 1_555
O2C S1C 1_555 1_555
C2I C1 1_555 1_555
H1I C2I 1_555 1_555
C3I C4 1_555 1_555
H2I C3I 1_555 1_555
O1I S1 1_555 1_555
C2J C1C 1_555 1_555
H1J C2J 1_555 1_555
C3J C4C 1_555 1_555
H2J C3J 1_555 1_555
O1J S1C 1_555 1_555
C2K C1B 1_555 1_555
H1K C2K 1_555 1_555
C3K C4B 1_555 1_555
H2K C3K 1_555 1_555
O1K S1B 1_555 1_555
S1A C1A 1_555 1_555
N1A C6A 1_555 1_555
C1A C2A 1_555 1_555
C2A H1A 1_555 1_555
C3A C2A 1_555 1_555
H2A C3A 1_555 1_555
C4A C3A 1_555 1_555
C5A C9B 1_555 1_555
C6A C5A 1_555 1_555
C7A C6A 1_555 1_555
H3A C7A 1_555 1_555
C8A C7A 1_555 1_555
H4A C8A 1_555 1_555
C9A C5C 1_555 1_555
O1A S1A 1_555 1_555
O2A S1A 1_555 1_555
C2H C1A 1_555 1_555
H1H C2H 1_555 1_555
C3H C4A 1_555 1_555
H2H C3H 1_555 1_555
O1H S1A 1_555 1_555
Tb1_2 O1A 1_555 1_555
Tb1_3 O1B 1_555 1_555
Tb1_4 O1C 1_555 1_555
Tb1H O1H 1_555 1_555
Tb1H_2 O1K 1_555 1_555
Tb1H_3 O1J 1_555 1_555
Tb1H_4 O1I 1_555 1_555
O1A_2 Tb1 1_555 1_555
O1B_2 Tb1 1_555 1_555
O1C_2 Tb1 1_555 1_555
O1D Tb1 1_555 1_555
O1E Tb1 1_555 1_555
O1F Tb1 1_555 1_555
O1G Tb1 1_555 1_555
C8 C9 1_555 1_555
C4B C5B 1_555 1_555
C8B C9B 1_555 1_555
N1C C9C 1_555 1_555
C8C C9C 1_555 1_555
C2I C3I 1_555 1_555
C2J C3J 1_555 1_555
C2K C3K 1_555 1_555
N1A C9A 1_555 1_555
C4A C5A 1_555 1_555
C8A C9A 1_555 1_555
C2H C3H 1_555 1_555

#END
