
#######################################################################
#
#                 Cambridge Crystallographic Data Centre
#                                CCDC 
#
#######################################################################
#
# If this CIF has been generated from an entry in the Cambridge 
# Structural Database, then it will include bibliographic, chemical, 
# crystal, experimental, refinement or atomic coordinate data resulting 
# from the CCDC's data processing and validation procedures.
#
#######################################################################

data_DEHHEG
_audit_creation_date             2017-09-27
_database_code_depnum_ccdc_archive 'CCDC 1450029'
_database_code_CSD               DEHHEG
_chemical_formula_moiety         '(C10 H8 N4 O4 Zn1)n'
_chemical_name_systematic        
catena-[bis(\m-nitrito)-(\m-4,4'-bipyridine)-zinc(ii)]
_journal_coden_Cambridge         208
_journal_volume                  255
_journal_year                    2017
_journal_page_first              42
_journal_name_full               'J.Solid State Chem.'
_journal_paper_doi               10.1016/j.jssc.2017.07.031
loop_
_publ_author_name
N.N.Golovnev
L.A.Solovyov
M.K.Lesnikov
S.N.Vereshchagin
V.V.Atuchin
_chemical_absolute_configuration unk
_diffrn_ambient_temperature      296
_exptl_crystal_density_diffrn    1.846
#These two values have been output from a single CSD field.
_refine_ls_R_factor_gt           0.0284
_refine_ls_wR_factor_gt          0.0284
_diffrn_radiation_probe          x-ray
_symmetry_cell_setting           tetragonal
_symmetry_space_group_name_H-M   'P 41 21 2'
_symmetry_Int_Tables_number      92
_space_group_name_Hall           'P 4abw 2nw'
loop_
_symmetry_equiv_pos_site_id
_symmetry_equiv_pos_as_xyz
1 x,y,z
2 1/2-y,1/2+x,1/4+z
3 1/2+y,1/2-x,3/4+z
4 1/2+x,1/2-y,3/4-z
5 1/2-x,1/2+y,1/4-z
6 -x,-y,1/2+z
7 y,x,-z
8 -y,-x,1/2-z
_cell_length_a                   7.9719(2)
_cell_length_b                   7.9719(2)
_cell_length_c                   17.7528(7)
_cell_angle_alpha                90
_cell_angle_beta                 90
_cell_angle_gamma                90
_cell_volume                     1128.21
_exptl_crystal_colour            colorless
_exptl_crystal_description       'rectangular block'
_cell_formula_units_Z            4
loop_
_atom_site_label
_atom_site_type_symbol
_atom_site_fract_x
_atom_site_fract_y
_atom_site_fract_z
Zn1 Zn 0.26275(3) 0.26275(3) 1.0000
O1 O 0.6069(2) 0.0985(2) 0.82897(10)
O2 O 0.4014(2) 0.1257(2) 0.91324(11)
N1 N 0.5269(3) 0.1754(3) 0.87894(12)
N2 N 0.4494(2) 0.4494(2) 1.0000
C1 C 0.5910(3) 0.4307(3) 1.03994(14)
H1 H 0.6043 0.3339 1.0686
C2 C 0.7184(3) 0.5489(3) 1.04038(14)
H2 H 0.8166 0.5296 1.0672
C3 C 0.6970(2) 0.6970(2) 1.0000
C4 C 0.8283(3) 0.8283(3) 1.0000
C5 C 0.9954(3) 0.7869(3) 0.98787(15)
H3 H 1.0270 0.6760 0.9799
C6 C 1.1140(3) 0.9137(3) 0.98784(15)
H4 H 1.2255 0.8857 0.9790
N3 N 1.0750(2) 1.0750(2) 1.0000
C1F C 0.4307(3) 0.5910(3) 0.96006(14)
H1F H 0.3339 0.6043 0.9314
C2F C 0.5489(3) 0.7184(3) 0.95962(14)
H2F H 0.5296 0.8166 0.9328
C5F C 0.7869(3) 0.9954(3) 1.01213(15)
H3F H 0.6760 1.0270 1.0201
C6F C 0.9137(3) 1.1140(3) 1.01216(15)
H4F H 0.8857 1.2255 1.0210
O1F O 0.0985(2) 0.6069(2) 1.17103(10)
O2F O 0.1257(2) 0.4014(2) 1.08676(11)
N1F N 0.1754(3) 0.5269(3) 1.12106(12)
Zn1_2 Zn 1.26275(3) 1.26275(3) 1.0000
Zn1A Zn 0.23725(3) 0.76275(3) 1.2500
Zn1B Zn 0.76275(3) 0.23725(3) 0.7500
O1A O 0.4015(2) 0.1069(2) 1.07897(10)
O1C O 0.1069(2) 0.4015(2) 0.92103(10)
N3_2 N 0.0750(2) 0.0750(2) 1.0000
loop_
_geom_bond_atom_site_label_1
_geom_bond_atom_site_label_2
_geom_bond_site_symmetry_1
_geom_bond_site_symmetry_2
Zn1 O2 1_555 1_555
O1 N1 1_555 1_555
O2 N1 1_555 1_555
N2 Zn1 1_555 1_555
C1 N2 1_555 1_555
H1 C1 1_555 1_555
C2 C1 1_555 1_555
H2 C2 1_555 1_555
C3 C2 1_555 1_555
C4 C3 1_555 1_555
C5 C4 1_555 1_555
H3 C5 1_555 1_555
C6 C5 1_555 1_555
H4 C6 1_555 1_555
N3 C6 1_555 1_555
C1F N2 1_555 1_555
H1F C1F 1_555 1_555
C2F C3 1_555 1_555
H2F C2F 1_555 1_555
C5F C4 1_555 1_555
H3F C5F 1_555 1_555
C6F N3 1_555 1_555
H4F C6F 1_555 1_555
O1F N1F 1_555 1_555
O2F Zn1 1_555 1_555
N1F O2F 1_555 1_555
Zn1_2 N3 1_555 1_555
Zn1A O1F 1_555 1_555
Zn1B O1 1_555 1_555
O1A Zn1 1_555 1_555
O1C Zn1 1_555 1_555
N3_2 Zn1 1_555 1_555
C1F C2F 1_555 1_555
C5F C6F 1_555 1_555

#END
