
#######################################################################
#
#                 Cambridge Crystallographic Data Centre
#                                CCDC 
#
#######################################################################
#
# If this CIF has been generated from an entry in the Cambridge 
# Structural Database, then it will include bibliographic, chemical, 
# crystal, experimental, refinement or atomic coordinate data resulting 
# from the CCDC's data processing and validation procedures.
#
#######################################################################

data_IRIMOO
_audit_creation_date             2021-04-13
_database_code_depnum_ccdc_archive 'CCDC 2053314'
_database_code_CSD               IRIMOO
_chemical_formula_moiety         '(C18 H12 N2 O5 Zn1)n,C3 H7 N1 O1'
_chemical_name_systematic        
"catena-((\m-4,4'-(pyrazine-2,6-diyl)dibenzoato)-aqua-zinc dimethylformamide solvate)"
_journal_coden_Cambridge         1350
_journal_volume                  23
_journal_year                    2021
_journal_page_first              3167
_journal_name_full               CrystEngComm
_journal_paper_doi               10.1039/D1CE00245G
loop_
_publ_author_name
'Shuang-Li Sun'
'Xi-Yu Sun'
'Qian Sun'
'En-Qing Gao'
_chemical_absolute_configuration unk
_diffrn_ambient_temperature      293
_exptl_crystal_density_diffrn    1.619
#These two values have been output from a single CSD field.
_refine_ls_R_factor_gt           0.0301
_refine_ls_wR_factor_gt          0.0301
_diffrn_radiation_probe          x-ray
_symmetry_cell_setting           triclinic
_symmetry_space_group_name_H-M   'P -1'
_symmetry_Int_Tables_number      2
_space_group_name_Hall           '-P 1'
loop_
_symmetry_equiv_pos_site_id
_symmetry_equiv_pos_as_xyz
1 x,y,z
2 -x,-y,-z
_cell_length_a                   9.6073(2)
_cell_length_b                   10.1391(3)
_cell_length_c                   11.8289(3)
_cell_angle_alpha                98.770(2)
_cell_angle_beta                 112.985(2)
_cell_angle_gamma                106.117(2)
_cell_volume                     973.736
_exptl_crystal_colour            colorless
_exptl_crystal_description       block
_cell_formula_units_Z            2
_exptl_crystal_preparation       Luminescent
loop_
_atom_site_label
_atom_site_type_symbol
_atom_site_fract_x
_atom_site_fract_y
_atom_site_fract_z
Zn1 Zn 1.22135(3) 0.95964(2) 1.02579(2)
O1 O 1.01412(16) 0.78795(14) 0.96359(14)
O2 O 0.83471(16) 0.88823(14) 0.87691(13)
O3 O -0.51575(17) 0.07173(15) 0.14698(13)
O4 O -0.65563(17) -0.08419(16) 0.20985(14)
O5 O 1.2864(2) 0.82190(17) 0.92353(15)
H1 H 1.220(4) 0.755(3) 0.872(3)
H2 H 1.353(4) 0.855(3) 0.899(3)
C1 C 0.8709(2) 0.7849(2) 0.90964(17)
C2 C 0.7348(2) 0.6474(2) 0.88191(18)
C3 C 0.7650(2) 0.5378(2) 0.9330(2)
C4 C 0.5736(2) 0.6318(2) 0.80814(19)
C5 C 0.6377(2) 0.4157(2) 0.9130(2)
C6 C 0.4462(2) 0.5108(2) 0.78813(18)
C7 C 0.4761(2) 0.4013(2) 0.84072(17)
C8 C 0.3362(2) 0.2741(2) 0.81930(18)
C9 C 0.3468(2) 0.1909(2) 0.90415(18)
C10 C 0.0749(2) 0.0560(2) 0.78489(18)
H3 H -0.0183 -0.0175 0.7715
C11 C 0.0648(2) 0.1348(2) 0.69726(18)
C12 C -0.0889(2) 0.1012(2) 0.57899(18)
C13 C -0.0921(3) 0.1839(3) 0.4961(2)
C14 C -0.2314(3) -0.0100(3) 0.5483(3)
C15 C -0.3704(3) -0.0389(3) 0.4359(3)
C16 C -0.2310(3) 0.1545(3) 0.3838(2)
C17 C -0.3718(2) 0.0404(2) 0.35127(18)
C18 C -0.5238(2) 0.0058(2) 0.22937(19)
N1 N 0.19494(19) 0.24501(17) 0.71617(15)
N2 N 0.21553(19) 0.08358(17) 0.88785(15)
H4 H 0.877(3) 0.548(3) 0.984(2)
H5 H 0.339(3) 0.506(2) 0.743(2)
H6 H 0.445(3) 0.210(2) 0.978(2)
H7 H -0.003(4) 0.257(3) 0.519(3)
H8 H 0.550(3) 0.703(3) 0.774(2)
H9 H 0.660(3) 0.339(3) 0.945(2)
H10 H -0.463(5) -0.116(4) 0.410(4)
H11 H -0.229(4) 0.218(3) 0.331(3)
H12 H -0.235(4) -0.065(4) 0.604(4)
Zn1_2 Zn -0.77865(3) -0.04036(2) 0.02579(2)
Zn1_3 Zn 0.22135(3) -0.04036(2) 1.02579(2)
Zn1A Zn 0.77865(3) 1.04036(2) 0.97421(2)
O2A O 1.16529(16) 1.11177(14) 1.12309(13)
O3_2 O 1.48425(17) 1.07173(15) 1.14698(13)
O4_2 O 1.34437(17) 0.91581(16) 1.20985(14)
N2_2 N 1.21553(19) 1.08358(17) 0.88785(15)
O6 O 0.0857(3) 0.5780(3) 0.7335(3)
C19 C -0.2085(5) 0.6012(5) 0.5932(4)
H13 H -0.3225 0.5820 0.5452
H14 H -0.1596 0.6870 0.6640
H15 H -0.1572 0.6140 0.5383
C20 C -0.0407(4) 0.4833(3) 0.7109(4)
C21 C -0.3319(4) 0.3579(4) 0.6125(4)
N3 N -0.1876(3) 0.4799(2) 0.6421(2)
H16 H -0.408(5) 0.391(4) 0.636(4)
H17 H -0.045(5) 0.390(4) 0.748(4)
H18 H -0.388(4) 0.324(4) 0.522(4)
H19 H -0.288(6) 0.289(5) 0.670(5)
loop_
_geom_bond_atom_site_label_1
_geom_bond_atom_site_label_2
_geom_bond_site_symmetry_1
_geom_bond_site_symmetry_2
Zn1 O1 1_555 1_555
O1 C1 1_555 1_555
O2 C1 1_555 1_555
O3 C18 1_555 1_555
O4 C18 1_555 1_555
O5 Zn1 1_555 1_555
H1 O5 1_555 1_555
H2 O5 1_555 1_555
C1 C2 1_555 1_555
C2 C3 1_555 1_555
C3 C5 1_555 1_555
C4 C2 1_555 1_555
C5 C7 1_555 1_555
C6 C4 1_555 1_555
C7 C6 1_555 1_555
C8 C7 1_555 1_555
C9 C8 1_555 1_555
C10 H3 1_555 1_555
C11 C10 1_555 1_555
C12 C11 1_555 1_555
C13 C12 1_555 1_555
C14 C12 1_555 1_555
C15 C14 1_555 1_555
C16 C13 1_555 1_555
C17 C15 1_555 1_555
C18 C17 1_555 1_555
N1 C8 1_555 1_555
N2 C9 1_555 1_555
H4 C3 1_555 1_555
H5 C6 1_555 1_555
H6 C9 1_555 1_555
H7 C13 1_555 1_555
H8 C4 1_555 1_555
H9 C5 1_555 1_555
H10 C15 1_555 1_555
H11 C16 1_555 1_555
H12 C14 1_555 1_555
O6 C20 1_555 1_555
C19 H13 1_555 1_555
H14 C19 1_555 1_555
H15 C19 1_555 1_555
C20 N3 1_555 1_555
C21 N3 1_555 1_555
N3 C19 1_555 1_555
H16 C21 1_555 1_555
H17 C20 1_555 1_555
H18 C21 1_555 1_555
H19 C21 1_555 1_555
Zn1_2 O3 1_555 1_555
Zn1_3 N2 1_555 1_555
Zn1A O2 1_555 1_555
O2A Zn1 1_555 1_555
O3_2 Zn1 1_555 1_555
O4_2 Zn1 1_555 1_555
N2_2 Zn1 1_555 1_555
O4 Zn1_2 1_555 1_555
C10 N2 1_555 1_555
C11 N1 1_555 1_555
C16 C17 1_555 1_555

#END
