
#######################################################################
#
#                 Cambridge Crystallographic Data Centre
#                                CCDC 
#
#######################################################################
#
# If this CIF has been generated from an entry in the Cambridge 
# Structural Database, then it will include bibliographic, chemical, 
# crystal, experimental, refinement or atomic coordinate data resulting 
# from the CCDC's data processing and validation procedures.
#
#######################################################################

data_NEBTIA
_audit_creation_date             2017-08-08
_database_code_depnum_ccdc_archive 'CCDC 1062101'
_database_code_CSD               NEBTIA
_chemical_formula_moiety         '(C12 H14 Ca1 N2 O5)n'
_chemical_name_systematic        
catena-((\m-5-aminoisophthalato)-(N,N-dimethylacetamide)-calcium)
_journal_coden_Cambridge         580
_journal_volume                  137
_journal_year                    2017
_journal_page_first              52
_journal_name_full               Polyhedron
_journal_paper_doi               10.1016/j.poly.2017.07.027
loop_
_publ_author_name
'Atom Rajiv Singh'
'Naveen Singh Rawat'
P.S.Devi
R.Lonibala
_chemical_absolute_configuration unk
_diffrn_ambient_temperature      293
_exptl_crystal_density_diffrn    1.519
#These two values have been output from a single CSD field.
_refine_ls_R_factor_gt           0.0348
_refine_ls_wR_factor_gt          0.0348
_diffrn_radiation_probe          x-ray
_symmetry_cell_setting           orthorhombic
_symmetry_space_group_name_H-M   'P n a 21'
_symmetry_Int_Tables_number      33
_space_group_name_Hall           'P 2c -2n'
loop_
_symmetry_equiv_pos_site_id
_symmetry_equiv_pos_as_xyz
1 x,y,z
2 -x,-y,1/2+z
3 1/2-x,1/2+y,1/2+z
4 1/2+x,1/2-y,z
_cell_length_a                   7.5792(4)
_cell_length_b                   15.8457(8)
_cell_length_c                   11.1511(6)
_cell_angle_alpha                90
_cell_angle_beta                 90
_cell_angle_gamma                90
_cell_volume                     1339.22
_exptl_crystal_colour            yellow
_exptl_crystal_description       needle
_cell_formula_units_Z            4
loop_
_atom_site_label
_atom_site_type_symbol
_atom_site_fract_x
_atom_site_fract_y
_atom_site_fract_z
_atom_site_U_iso_or_equiv
_atom_site_thermal_displace_type
Ca1 Ca 1.01030(5) 0.76860(2) 0.20324(6) 0.0175 Uani
O1 O 1.0686(2) 0.82992(12) 0.39810(17) 0.0302 Uani
N1 N 1.7734(3) 0.94463(17) 0.5705(3) 0.0404 Uani
H1 H 1.833(4) 0.990(2) 0.606(3) 0.0440 Uiso
H2 H 1.839(5) 0.910(2) 0.518(3) 0.0460 Uiso
C1 C 1.3238(3) 0.90631(14) 0.4577(2) 0.0208 Uani
C2 C 1.2239(3) 0.84923(14) 0.3739(2) 0.0204 Uani
O2 O 1.3005(2) 0.82339(10) 0.27918(16) 0.0236 Uani
N2 N 1.0722(6) 0.7935(3) -0.1866(3) 0.0835 Uani
O3 O 1.2841(2) 1.15713(10) 0.6923(2) 0.0276 Uani
C3 C 1.5050(3) 0.90170(16) 0.4703(2) 0.0264 Uani
H3 H 1.5685 0.8628 0.4251 0.0320 Uiso
C4 C 1.5941(3) 0.95506(16) 0.5504(2) 0.0253 Uani
C5 C 1.4974(3) 1.01631(16) 0.6131(2) 0.0254 Uani
H4 H 1.5551 1.0532 0.6648 0.0300 Uiso
O4 O 1.0000(4) 0.7566(2) -0.0027(2) 0.0601 Uani
O5 O 1.0442(2) 1.08283(12) 0.65948(19) 0.0329 Uani
C6 C 1.3157(3) 1.02211(15) 0.5983(2) 0.0221 Uani
C7 C 1.2283(3) 0.96587(15) 0.5230(2) 0.0240 Uani
H5 H 1.1061 0.9680 0.5162 0.0290 Uiso
C8 C 1.0386(6) 0.7417(4) -0.1078(4) 0.0783 Uani
C9 C 1.2080(3) 1.09061(15) 0.6556(2) 0.0225 Uani
C10 C 1.0521(9) 0.6464(3) -0.1532(4) 0.0903 Uani
H6 H 0.9784 0.6391 -0.2224 0.1360 Uiso
H7 H 1.0137 0.6091 -0.0906 0.1360 Uiso
H8 H 1.1722 0.6338 -0.1738 0.1360 Uiso
C11 C 1.1138(7) 0.7769(3) -0.3134(4) 0.0703 Uani
H9 H 1.1385 0.7180 -0.3240 0.1060 Uiso
H10 H 1.2151 0.8095 -0.3365 0.1060 Uiso
H11 H 1.0149 0.7926 -0.3624 0.1060 Uiso
C12 C 1.0624(8) 0.8862(3) -0.1445(5) 0.0830 Uani
H12 H 0.9874 0.8901 -0.0753 0.1250 Uiso
H13 H 1.0152 0.9205 -0.2078 0.1250 Uiso
H14 H 1.1786 0.9057 -0.1241 0.1250 Uiso
Ca1A Ca 0.98970(5) 1.23140(2) 0.70324(6) 0.0175 Uani
Ca1B Ca 1.48970(5) 1.26860(2) 0.70324(6) 0.0175 Uani
Ca1C Ca 1.51030(5) 0.73140(2) 0.20324(6) 0.0175 Uani
O2C O 0.8005(2) 0.67661(10) 0.27918(16) 0.0236 Uani
O3A O 0.7159(2) 0.84287(10) 0.1923(2) 0.0276 Uani
O3B O 1.2159(2) 0.65713(10) 0.1923(2) 0.0276 Uani
O5A O 0.9558(2) 0.91717(12) 0.15948(19) 0.0329 Uani
loop_
_atom_site_aniso_label
_atom_site_aniso_U_11
_atom_site_aniso_U_22
_atom_site_aniso_U_33
_atom_site_aniso_U_23
_atom_site_aniso_U_13
_atom_site_aniso_U_12
Ca1 0.01544(18) 0.01824(18) 0.01874(18) 0.0010(2) -0.0004(2) -0.00027(14)
O1 0.0238(9) 0.0411(11) 0.0256(9) -0.0099(8) 0.0026(8) -0.0094(8)
N1 0.0191(11) 0.0398(13) 0.0624(19) -0.0220(13) -0.0043(11) 0.0002(10)
C1 0.0206(11) 0.0194(10) 0.0224(12) -0.0045(9) -0.0002(9) -0.0027(8)
C2 0.0217(11) 0.0171(10) 0.0224(11) -0.0028(9) -0.0014(9) 0.0006(8)
O2 0.0209(8) 0.0245(8) 0.0253(8) -0.0068(7) 0.0001(7) 0.0006(6)
N2 0.082(3) 0.129(4) 0.0396(19) 0.015(2) 0.0074(19) -0.004(3)
O3 0.0225 0.0203 0.0401 -0.0124 0.0001 -0.0015
C3 0.0228(12) 0.0257(12) 0.0307(13) -0.0098(10) 0.0020(10) 0.0025(9)
C4 0.0182(11) 0.0262(11) 0.0316(13) -0.0049(10) -0.0021(10) -0.0008(9)
C5 0.0230(12) 0.0237(11) 0.0295(13) -0.0068(10) -0.0021(10) -0.0009(9)
O4 0.074(2) 0.0841(19) 0.0221(11) 0.0027(12) 0.0031(11) 0.0125(14)
O5 0.0205 0.0269 0.0514 -0.0154 0.0044 -0.0009
C6 0.0206(11) 0.0207(10) 0.0249(11) -0.0056(9) 0.0010(10) -0.0009(8)
C7 0.0184(11) 0.0215(10) 0.0320(13) -0.0055(9) 0.0005(10) -0.0014(9)
C8 0.054(2) 0.147(5) 0.034(2) 0.009(3) -0.0032(19) 0.010(3)
C9 0.0234 0.0193 0.0249 -0.0023 -0.0005 -0.0007
C10 0.158(5) 0.051(3) 0.062(3) 0.007(2) 0.013(3) 0.012(3)
C11 0.097(3) 0.083(3) 0.031(2) 0.0070(19) 0.017(2) -0.001(2)
C12 0.123(4) 0.049(2) 0.077(3) -0.004(2) 0.022(3) 0.005(3)
Ca1A 0.01544 0.01824 0.01874 -0.001 0.0004 -0.00027
Ca1B 0.01544 0.01824 0.01874 0.001 0.0004 0.00027
Ca1C 0.01544 0.01824 0.01874 -0.001 -0.0004 0.00027
O2C 0.0209 0.0245 0.0253 0.0068 0.0001 -0.0006
O3A 0.0225 0.0203 0.0401 0.0124 -0.0001 -0.0015
O3B 0.0225 0.0203 0.0401 -0.0124 -0.0001 0.0015
O5A 0.0205 0.0269 0.0514 0.0154 -0.0044 -0.0009
loop_
_geom_bond_atom_site_label_1
_geom_bond_atom_site_label_2
_geom_bond_site_symmetry_1
_geom_bond_site_symmetry_2
Ca1 O1 1_555 1_555
O1 C2 1_555 1_555
N1 H1 1_555 1_555
H2 N1 1_555 1_555
C1 C2 1_555 1_555
C2 O2 1_555 1_555
O2 Ca1 1_555 1_555
N2 C8 1_555 1_555
O3 C9 1_555 1_555
C3 C1 1_555 1_555
H3 C3 1_555 1_555
C4 N1 1_555 1_555
C5 C4 1_555 1_555
H4 C5 1_555 1_555
O4 Ca1 1_555 1_555
O5 C9 1_555 1_555
C6 C5 1_555 1_555
C7 C1 1_555 1_555
H5 C7 1_555 1_555
C8 O4 1_555 1_555
C9 C6 1_555 1_555
C10 C8 1_555 1_555
H6 C10 1_555 1_555
H7 C10 1_555 1_555
H8 C10 1_555 1_555
C11 N2 1_555 1_555
H9 C11 1_555 1_555
H10 C11 1_555 1_555
H11 C11 1_555 1_555
C12 N2 1_555 1_555
H12 C12 1_555 1_555
H13 C12 1_555 1_555
H14 C12 1_555 1_555
Ca1A O3 1_555 1_555
Ca1B O3 1_555 1_555
Ca1C O2 1_555 1_555
O2C Ca1 1_555 1_555
O3A Ca1 1_555 1_555
O3B Ca1 1_555 1_555
O5A Ca1 1_555 1_555
C3 C4 1_555 1_555
O5 Ca1A 1_555 1_555
C6 C7 1_555 1_555
Ca1C O3B 1_555 1_555

#END
